Route #1: 35 34 26 4 12
Route #2: 27 41 43 11 3 28 6 2
Route #3: 31 36 19 29 33
Route #4: 39 21 24 44 14 9 32
Route #5: 22 5 30 37 1 42 8
Route #6: 10 15 25 23 17 38 13
Route #7: 18 7 16 20 40
Cost 1146
Time 0.181253
Tempo = 0.1943602000028477